90
[[-1, 45725, 0, 0, 12013, 0, 0, 0, 0, 0, 0, 0, 0, 0, 25302, 0, 0, 0, 0, 0, 29558, 0, 0, 0, 0, 38783, 0, 22657, 0, 0, 25243, 5122, 45796, 0, 20828, 20296, 0, 0, 31883, 0, 18480, 0, 39679, 0, 0, 0, 0, 0, 21356, 0, 0, 0, 0, 0, 0, 0, 0, 0, 24704, 0, 27423, 0, 0, 0, 0, 0, 34465, 0, 0, 0, 19284, 0, 0, 0, 0, 0, 0, 28772, 37467, 0, 0, 0, 0, 0, 0, 0, 0, 10907, 0, 0],[45725, -1, 0, 0, 0, 0, 0, 0, 28481, 0, 0, 19535, 0, 40647, 32049, 0, 15560, 35235, 0, 0, 0, 0, 0, 44777, 0, 0, 38080, 0, 0, 0, 0, 0, 0, 25586, 0, 0, 20707, 0, 0, 0, 0, 0, 0, 26763, 37136, 0, 44946, 24998, 0, 0, 0, 0, 0, 0, 23990, 39748, 0, 0, 0, 0, 0, 29833, 0, 35298, 0, 33177, 0, 0, 40285, 0, 0, 9859, 0, 41869, 0, 0, 0, 0, 0, 0, 0, 0, 0, 0, 0, 0, 0, 0, 0, 32071],[0, 0, -1, 0, 0, 0, 0, 0, 0, 0, 0, 0, 0, 33160, 39121, 0, 0, 0, 45586, 0, 35063, 0, 0, 0, 0, 32491, 0, 0, 0, 0, 40737, 0, 0, 0, 0, 0, 0, 0, 0, 0, 0, 0, 0, 44310, 0, 0, 0, 0, 0, 0, 21209, 0, 22398, 0, 0, 0, 34497, 0, 0, 35648, 0, 0, 33609, 0, 0, 0, 0, 0, 0, 0, 39260, 0, 0, 0, 0, 41767, 0, 0, 0, 0, 0, 0, 0, 0, 0, 0, 0, 0, 0, 0],[0, 0, 0, -1, 0, 0, 0, 0, 8352, 0, 27480, 0, 0, 0, 0, 28384, 13962, 0, 0, 0, 0, 34221, 0, 0, 0, 37115, 0, 0, 0, 0, 0, 33959, 0, 0, 0, 0, 0, 0, 46123, 0, 0, 32160, 0, 11668, 0, 0, 0, 43901, 41848, 0, 35824, 0, 0, 32255, 0, 0, 0, 0, 40194, 19473, 0, 0, 32591, 0, 0, 34807, 0, 0, 0, 20409, 0, 12370, 0, 0, 43310, 34706, 33395, 0, 31226, 42692, 0, 0, 17460, 0, 0, 42728, 0, 0, 0, 0],[12013, 0, 0, 0, -1, 0, 0, 0, 0, 6456, 0, 0, 35220, 28950, 0, 0, 0, 0, 0, 0, 0, 0, 0, 0, 44135, 0, 37822, 30019, 0, 0, 0, 45217, 0, 0, 0, 0, 0, 0, 0, 0, 32399, 0, 22913, 0, 0, 0, 0, 0, 0, 0, 0, 0, 0, 20324, 0, 0, 6661, 17889, 0, 0, 0, 44992, 0, 10928, 0, 14650, 0, 0, 0, 0, 45930, 0, 40608, 0, 0, 24273, 0, 0, 0, 0, 0, 0, 0, 0, 0, 25263, 30078, 0, 44406, 0],[0, 0, 0, 0, 0, -1, 0, 0, 0, 0, 0, 45104, 0, 0, 0, 0, 0, 0, 0, 0, 0, 0, 43651, 37622, 0, 0, 0, 13338, 42231, 0, 0, 0, 0, 34856, 0, 0, 0, 46318, 0, 0, 0, 0, 0, 0, 30127, 0, 0, 0, 17489, 27173, 0, 32547, 13133, 0, 0, 0, 35580, 0, 0, 0, 10484, 0, 26008, 0, 0, 0, 0, 38149, 0, 0, 0, 0, 12566, 5308, 0, 35969, 45666, 0, 0, 0, 0, 35838, 0, 0, 0, 29372, 0, 0, 29442, 4530],[0, 0, 0, 0, 0, 0, -1, 0, 0, 0, 0, 11083, 0, 0, 0, 0, 0, 0, 40333, 0, 0, 0, 15977, 0, 0, 0, 0, 14838, 21572, 0, 0, 34480, 0, 0, 0, 0, 0, 0, 0, 0, 0, 0, 0, 0, 0, 23734, 0, 37689, 27700, 0, 0, 0, 33366, 0, 0, 0, 0, 30798, 0, 0, 12266, 0, 23678, 0, 0, 0, 0, 0, 38193, 0, 0, 0, 0, 16416, 0, 42041, 41018, 0, 0, 0, 37196, 0, 0, 0, 13115, 27215, 0, 0, 0, 0],[0, 0, 0, 0, 0, 0, 0, -1, 30055, 0, 0, 0, 0, 0, 7122, 17130, 0, 30638, 0, 0, 31497, 0, 0, 0, 0, 0, 0, 0, 0, 0, 0, 0, 0, 0, 0, 0, 0, 0, 42849, 22863, 0, 0, 0, 0, 0, 0, 0, 0, 0, 0, 0, 0, 0, 0, 0, 0, 0, 19272, 0, 0, 0, 36992, 0, 44642, 37794, 0, 0, 39974, 23672, 46181, 19693, 0, 22211, 0, 42121, 0, 0, 0, 0, 0, 0, 0, 0, 0, 0, 0, 30083, 0, 23994, 0],[0, 28481, 0, 8352, 0, 0, 0, 30055, -1, 0, 0, 0, 42024, 0, 0, 0, 38827, 46166, 14777, 0, 0, 0, 28202, 0, 0, 0, 42878, 0, 0, 0, 0, 0, 0, 0, 0, 0, 0, 0, 0, 0, 0, 38689, 37073, 0, 0, 27854, 32048, 18327, 0, 45354, 35294, 0, 0, 0, 0, 0, 0, 34627, 0, 0, 0, 0, 42498, 0, 0, 45401, 43740, 0, 0, 44913, 30625, 34912, 9242, 0, 0, 38211, 0, 0, 10216, 0, 0, 34026, 0, 0, 0, 0, 0, 0, 0, 0],[0, 0, 0, 0, 6456, 0, 0, 0, 0, -1, 0, 29148, 0, 0, 21978, 26895, 0, 37058, 0, 36296, 0, 0, 30102, 0, 38758, 0, 0, 0, 0, 0, 32902, 0, 0, 0, 44457, 0, 0, 0, 0, 0, 0, 0, 0, 0, 45896, 0, 0, 0, 0, 0, 0, 0, 0, 0, 0, 0, 0, 39349, 0, 22406, 0, 12409, 0, 22357, 44322, 0, 0, 0, 41281, 0, 0, 0, 0, 18063, 0, 0, 0, 43741, 0, 0, 24398, 0, 0, 0, 0, 0, 0, 26495, 0, 0],[0, 0, 0, 27480, 0, 0, 0, 0, 0, 0, -1, 0, 0, 0, 0, 0, 0, 0, 0, 0, 0, 0, 0, 0, 0, 18463, 0, 0, 0, 0, 0, 0, 0, 0, 0, 32134, 0, 37857, 0, 39582, 28384, 44645, 9966, 0, 0, 0, 0, 0, 28239, 40102, 0, 0, 0, 0, 0, 0, 29102, 0, 45155, 0, 0, 0, 0, 0, 0, 46300, 31313, 0, 0, 0, 16109, 27653, 0, 0, 0, 42751, 0, 0, 0, 44477, 37940, 0, 21757, 24472, 0, 33609, 0, 0, 0, 0],[0, 19535, 0, 0, 0, 45104, 11083, 0, 0, 29148, 0, -1, 31116, 15604, 0, 0, 17729, 0, 0, 0, 0, 0, 34726, 0, 0, 0, 15279, 16476, 0, 35325, 0, 0, 0, 0, 0, 0, 35150, 0, 25724, 0, 43059, 21130, 0, 3126, 0, 0, 0, 38067, 33849, 0, 0, 0, 0, 0, 0, 0, 0, 0, 0, 0, 0, 0, 0, 0, 34261, 0, 44671, 0, 28859, 0, 0, 0, 0, 0, 0, 0, 0, 39524, 40307, 0, 36762, 0, 0, 0, 30203, 0, 34496, 42176, 0, 45140],[0, 0, 0, 0, 35220, 0, 0, 0, 42024, 0, 0, 31116, -1, 19126, 0, 0, 0, 0, 36039, 0, 0, 46011, 0, 0, 0, 0, 0, 0, 27880, 0, 0, 0, 0, 36944, 0, 0, 0, 0, 0, 25251, 0, 43757, 6957, 0, 0, 0, 0, 28106, 0, 0, 0, 0, 0, 0, 34024, 18179, 0, 0, 0, 0, 35309, 0, 19617, 0, 0, 0, 0, 0, 0, 0, 0, 0, 23185, 38655, 29172, 0, 0, 42924, 0, 0, 0, 41175, 35846, 0, 41079, 0, 0, 35727, 0, 39800],[0, 40647, 33160, 0, 28950, 0, 0, 0, 0, 0, 0, 15604, 19126, -1, 0, 0, 23568, 35566, 0, 0, 0, 17566, 36178, 0, 34502, 22818, 42310, 0, 26099, 0, 0, 0, 20550, 27520, 0, 0, 34771, 0, 0, 45514, 0, 0, 0, 0, 0, 36620, 0, 0, 0, 40236, 0, 0, 0, 0, 0, 0, 21526, 0, 0, 0, 0, 0, 0, 42348, 15881, 0, 0, 0, 38133, 0, 0, 0, 0, 33285, 0, 0, 0, 35310, 0, 14762, 0, 24830, 0, 0, 29669, 0, 0, 0, 0, 0],[25302, 32049, 39121, 0, 0, 0, 0, 7122, 0, 21978, 0, 0, 0, 0, -1, 0, 0, 0, 0, 0, 0, 0, 0, 0, 20847, 0, 0, 0, 0, 0, 0, 0, 0, 0, 0, 0, 0, 0, 0, 0, 22536, 33166, 0, 0, 0, 0, 19995, 0, 0, 0, 19181, 0, 0, 0, 0, 0, 0, 40668, 0, 28721, 0, 0, 0, 0, 0, 0, 0, 11778, 0, 21490, 0, 0, 38099, 0, 0, 0, 0, 0, 0, 0, 0, 0, 0, 0, 0, 28484, 0, 0, 35197, 0],[0, 0, 0, 28384, 0, 0, 0, 17130, 0, 26895, 0, 0, 0, 0, 0, -1, 18417, 25125, 0, 0, 0, 0, 33578, 0, 0, 0, 0, 11574, 0, 0, 0, 0, 0, 0, 0, 0, 0, 0, 0, 0, 0, 0, 0, 25690, 20691, 0, 0, 0, 0, 0, 0, 0, 0, 0, 0, 42023, 0, 0, 10901, 0, 32845, 0, 0, 0, 0, 0, 0, 0, 0, 24747, 0, 44611, 0, 0, 0, 0, 0, 0, 0, 0, 0, 0, 29195, 0, 0, 0, 45559, 0, 0, 0],[0, 15560, 0, 13962, 0, 0, 0, 0, 38827, 0, 0, 17729, 0, 23568, 0, 18417, -1, 0, 0, 43058, 0, 32053, 0, 0, 0, 0, 0, 0, 0, 36801, 0, 0, 0, 0, 0, 0, 0, 0, 26751, 0, 0, 0, 45093, 0, 0, 44871, 0, 0, 0, 0, 0, 0, 0, 0, 0, 0, 0, 0, 5445, 0, 0, 0, 17596, 0, 24643, 41762, 0, 0, 16693, 0, 0, 0, 0, 5099, 0, 46140, 38447, 0, 0, 0, 0, 0, 0, 0, 0, 41143, 0, 0, 0, 0],[0, 35235, 0, 0, 0, 0, 0, 30638, 46166, 37058, 0, 0, 0, 35566, 0, 25125, 0, -1, 0, 0, 35775, 0, 0, 0, 0, 0, 0, 0, 0, 0, 0, 0, 0, 0, 0, 0, 0, 0, 0, 0, 0, 0, 0, 0, 23025, 0, 0, 32256, 0, 0, 0, 0, 0, 0, 37861, 0, 0, 23798, 0, 28585, 0, 0, 0, 23870, 0, 0, 0, 0, 0, 0, 37887, 0, 0, 0, 0, 33844, 0, 0, 0, 4289, 0, 42261, 39776, 0, 12434, 0, 0, 0, 0, 34367],[0, 0, 45586, 0, 0, 0, 40333, 0, 14777, 0, 0, 0, 36039, 0, 0, 0, 0, 0, -1, 23899, 0, 0, 0, 0, 0, 0, 0, 29632, 0, 0, 24938, 0, 0, 17721, 40756, 41056, 0, 27709, 0, 0, 0, 0, 0, 23247, 0, 0, 0, 38530, 0, 0, 0, 35245, 0, 30689, 0, 30423, 0, 42800, 0, 0, 0, 0, 0, 0, 0, 0, 45067, 30335, 0, 0, 0, 0, 0, 0, 0, 0, 0, 0, 0, 0, 0, 0, 0, 40974, 0, 42244, 20721, 0, 0, 0],[0, 0, 0, 0, 0, 0, 0, 0, 0, 36296, 0, 0, 0, 0, 0, 0, 43058, 0, 23899, -1, 0, 0, 0, 31281, 0, 40678, 0, 0, 23030, 0, 0, 0, 26020, 0, 0, 0, 0, 25937, 0, 0, 0, 44364, 40096, 0, 0, 0, 27686, 0, 0, 0, 0, 27638, 0, 13647, 0, 17607, 43123, 0, 18617, 0, 4346, 0, 42614, 0, 0, 0, 0, 0, 26014, 0, 0, 0, 0, 29330, 42369, 27592, 34986, 33403, 0, 16639, 0, 0, 14307, 0, 0, 4633, 0, 0, 0, 0],[29558, 0, 35063, 0, 0, 0, 0, 31497, 0, 0, 0, 0, 0, 0, 0, 0, 0, 35775, 0, 0, -1, 0, 0, 0, 0, 0, 0, 0, 0, 0, 0, 0, 0, 0, 0, 0, 15416, 0, 0, 0, 0, 0, 0, 0, 0, 0, 0, 0, 0, 0, 0, 0, 0, 0, 0, 0, 0, 0, 0, 44728, 0, 0, 0, 0, 0, 40171, 0, 0, 0, 0, 0, 14431, 0, 0, 0, 0, 0, 0, 0, 0, 0, 0, 44258, 17730, 0, 0, 0, 0, 0, 43691],[0, 0, 0, 34221, 0, 0, 0, 0, 0, 0, 0, 0, 46011, 17566, 0, 0, 32053, 0, 0, 0, 0, -1, 0, 0, 0, 0, 0, 44548, 0, 0, 45316, 0, 0, 0, 0, 44598, 0, 0, 0, 17645, 0, 0, 38321, 0, 0, 0, 28004, 0, 0, 0, 0, 0, 0, 19562, 0, 0, 0, 0, 0, 0, 0, 0, 0, 0, 0, 0, 7062, 0, 42004, 0, 19426, 0, 0, 32817, 27131, 33160, 34380, 0, 0, 0, 38487, 0, 0, 0, 0, 0, 0, 0, 38913, 0],[0, 0, 0, 0, 0, 43651, 15977, 0, 28202, 30102, 0, 34726, 0, 36178, 0, 33578, 0, 0, 0, 0, 0, 0, -1, 0, 0, 16117, 41560, 0, 0, 0, 0, 0, 0, 0, 0, 0, 0, 0, 0, 0, 0, 0, 0, 0, 0, 0, 0, 0, 0, 0, 0, 0, 41142, 0, 0, 0, 12877, 34355, 0, 0, 0, 0, 0, 0, 0, 0, 0, 35728, 0, 46019, 0, 0, 0, 0, 0, 31470, 0, 45618, 0, 0, 0, 0, 39513, 0, 0, 9626, 0, 0, 0, 32518],[0, 44777, 0, 0, 0, 37622, 0, 0, 0, 0, 0, 0, 0, 0, 0, 0, 0, 0, 0, 31281, 0, 0, 0, -1, 0, 0, 0, 0, 0, 40552, 0, 0, 0, 0, 0, 0, 0, 0, 0, 0, 0, 0, 0, 0, 31420, 0, 0, 0, 20493, 41131, 0, 0, 0, 0, 0, 0, 0, 31433, 0, 0, 0, 0, 0, 0, 0, 0, 0, 0, 0, 24682, 0, 0, 0, 0, 0, 0, 0, 0, 9567, 0, 0, 35349, 33966, 39422, 0, 38711, 44315, 0, 0, 0],[0, 0, 0, 0, 44135, 0, 0, 0, 0, 38758, 0, 0, 0, 34502, 20847, 0, 0, 0, 0, 0, 0, 0, 0, 0, -1, 0, 0, 33863, 0, 0, 0, 42709, 0, 0, 25922, 0, 0, 0, 0, 0, 39661, 0, 0, 11575, 0, 0, 0, 0, 38994, 0, 0, 0, 0, 0, 0, 0, 0, 0, 0, 0, 33354, 0, 0, 46243, 37859, 0, 0, 23790, 0, 34107, 0, 45080, 43742, 12502, 0, 0, 0, 0, 43878, 0, 13605, 29382, 17338, 37480, 0, 0, 0, 0, 10307, 43140],[38783, 0, 32491, 37115, 0, 0, 0, 0, 0, 0, 18463, 0, 0, 22818, 0, 0, 0, 0, 0, 40678, 0, 0, 16117, 0, 0, -1, 0, 0, 0, 0, 0, 37427, 0, 0, 0, 34557, 0, 0, 0, 0, 0, 0, 42390, 22493, 0, 0, 0, 28527, 0, 0, 0, 0, 38556, 0, 0, 0, 8303, 0, 0, 0, 33925, 0, 0, 44058, 0, 0, 0, 0, 0, 0, 0, 31022, 0, 0, 0, 0, 0, 0, 0, 0, 25722, 0, 44581, 0, 0, 0, 0, 0, 0, 0],[0, 38080, 0, 0, 37822, 0, 0, 0, 42878, 0, 0, 15279, 0, 42310, 0, 0, 0, 0, 0, 0, 0, 0, 41560, 0, 0, 0, -1, 0, 0, 0, 0, 0, 0, 0, 0, 0, 0, 45066, 13930, 17206, 0, 0, 0, 0, 31322, 0, 36445, 42859, 0, 0, 21316, 0, 0, 0, 0, 0, 0, 0, 0, 0, 0, 0, 0, 0, 0, 0, 37998, 12428, 0, 0, 39923, 15140, 0, 0, 0, 0, 0, 0, 0, 0, 0, 0, 0, 0, 0, 0, 0, 0, 0, 0],[22657, 0, 0, 0, 30019, 13338, 14838, 0, 0, 0, 0, 16476, 0, 0, 0, 11574, 0, 0, 29632, 0, 0, 44548, 0, 0, 33863, 0, 0, -1, 0, 0, 0, 44090, 0, 33956, 0, 0, 46231, 0, 0, 0, 0, 20075, 0, 11099, 0, 45385, 0, 43103, 0, 27472, 0, 0, 0, 0, 0, 0, 0, 0, 0, 0, 0, 30549, 17415, 0, 20398, 0, 37751, 0, 0, 43541, 45105, 12394, 0, 0, 0, 43006, 0, 0, 35306, 0, 0, 0, 0, 0, 0, 0, 0, 17945, 35617, 39638],[0, 0, 0, 0, 0, 42231, 21572, 0, 0, 0, 0, 0, 27880, 26099, 0, 0, 0, 0, 0, 23030, 0, 0, 0, 0, 0, 0, 0, 0, -1, 25430, 33047, 42614, 0, 46257, 0, 0, 36615, 0, 38693, 0, 0, 0, 0, 0, 0, 44707, 0, 0, 0, 41084, 0, 0, 0, 0, 0, 0, 44370, 0, 0, 34270, 7033, 0, 45489, 0, 0, 0, 0, 0, 0, 9283, 40802, 0, 0, 29126, 0, 0, 0, 34291, 13825, 0, 21762, 0, 0, 18511, 0, 34151, 0, 32137, 45430, 11248],[0, 0, 0, 0, 0, 0, 0, 0, 0, 0, 0, 35325, 0, 0, 0, 0, 36801, 0, 0, 0, 0, 0, 0, 40552, 0, 0, 0, 0, 25430, -1, 0, 41350, 32293, 0, 13826, 0, 30019, 0, 0, 0, 0, 0, 0, 0, 0, 0, 0, 0, 0, 0, 0, 0, 14283, 32639, 0, 31406, 0, 0, 0, 0, 0, 0, 0, 0, 0, 10097, 0, 35780, 33959, 0, 19508, 0, 41564, 40827, 0, 0, 0, 0, 0, 0, 27705, 4034, 0, 0, 0, 0, 0, 14814, 38475, 0],[25243, 0, 40737, 0, 0, 0, 0, 0, 0, 32902, 0, 0, 0, 0, 0, 0, 0, 0, 24938, 0, 0, 45316, 0, 0, 0, 0, 0, 0, 33047, 0, -1, 0, 44265, 0, 45400, 0, 0, 0, 0, 0, 0, 45061, 0, 0, 35044, 0, 34323, 44337, 0, 0, 0, 0, 0, 0, 44468, 30646, 0, 0, 0, 0, 0, 0, 0, 0, 37228, 0, 33060, 28912, 0, 9349, 0, 0, 0, 40136, 0, 0, 0, 0, 0, 0, 32285, 0, 0, 0, 0, 12427, 0, 0, 0, 37384],[5122, 0, 0, 33959, 45217, 0, 34480, 0, 0, 0, 0, 0, 0, 0, 0, 0, 0, 0, 0, 0, 0, 0, 0, 0, 42709, 37427, 0, 44090, 42614, 41350, 0, -1, 16166, 0, 0, 0, 43782, 0, 36995, 0, 0, 0, 0, 0, 27507, 33762, 0, 0, 0, 35946, 0, 38858, 27775, 0, 42376, 22190, 0, 0, 11542, 0, 0, 0, 0, 0, 0, 0, 0, 0, 40769, 0, 7209, 0, 0, 35674, 0, 0, 0, 0, 0, 0, 31478, 39726, 0, 26919, 0, 0, 30606, 36260, 0, 5562],[45796, 0, 0, 0, 0, 0, 0, 0, 0, 0, 0, 0, 0, 20550, 0, 0, 0, 0, 0, 26020, 0, 0, 0, 0, 0, 0, 0, 0, 0, 32293, 44265, 16166, -1, 0, 0, 0, 0, 0, 15520, 27282, 0, 0, 40620, 0, 9936, 0, 0, 0, 0, 0, 26762, 42711, 0, 32139, 42884, 38344, 0, 0, 34056, 0, 0, 43564, 0, 0, 0, 0, 41136, 0, 44046, 0, 0, 0, 0, 0, 0, 0, 0, 24337, 0, 11272, 0, 0, 0, 0, 0, 0, 0, 0, 26131, 0],[0, 25586, 0, 0, 0, 34856, 0, 0, 0, 0, 0, 0, 36944, 27520, 0, 0, 0, 0, 17721, 0, 0, 0, 0, 0, 0, 0, 0, 33956, 46257, 0, 0, 0, 0, -1, 0, 0, 44572, 25251, 0, 0, 0, 0, 0, 0, 0, 0, 0, 0, 0, 10481, 0, 0, 0, 0, 0, 0, 13550, 0, 0, 0, 21036, 14494, 30611, 0, 0, 0, 41501, 0, 0, 0, 20936, 0, 0, 0, 0, 32265, 0, 0, 0, 0, 15010, 0, 0, 0, 0, 0, 0, 0, 0, 0],[20828, 0, 0, 0, 0, 0, 0, 0, 0, 44457, 0, 0, 0, 0, 0, 0, 0, 0, 40756, 0, 0, 0, 0, 0, 25922, 0, 0, 0, 0, 13826, 45400, 0, 0, 0, -1, 0, 30184, 0, 0, 40865, 0, 0, 0, 26923, 46072, 0, 0, 0, 0, 0, 0, 0, 0, 0, 0, 41146, 0, 13480, 14413, 0, 0, 0, 0, 0, 0, 0, 0, 0, 0, 0, 0, 0, 0, 0, 0, 0, 0, 0, 0, 0, 0, 40222, 0, 45289, 0, 36352, 45146, 0, 33558, 0],[20296, 0, 0, 0, 0, 0, 0, 0, 0, 0, 32134, 0, 0, 0, 0, 0, 0, 0, 41056, 0, 0, 44598, 0, 0, 0, 34557, 0, 0, 0, 0, 0, 0, 0, 0, 0, -1, 0, 43924, 21130, 0, 24288, 0, 31645, 22968, 0, 0, 0, 0, 0, 0, 0, 0, 0, 0, 45473, 0, 0, 0, 0, 0, 0, 30951, 9421, 0, 0, 0, 0, 0, 45346, 0, 0, 25304, 40824, 0, 0, 46039, 0, 0, 0, 0, 0, 0, 39470, 0, 32567, 0, 46013, 40302, 0, 38314],[0, 20707, 0, 0, 0, 0, 0, 0, 0, 0, 0, 35150, 0, 34771, 0, 0, 0, 0, 0, 0, 15416, 0, 0, 0, 0, 0, 0, 46231, 36615, 30019, 0, 43782, 0, 44572, 30184, 0, -1, 0, 42819, 3196, 0, 0, 18067, 0, 0, 0, 0, 44455, 0, 0, 32069, 17328, 0, 23908, 27037, 0, 12669, 42848, 0, 24434, 24722, 0, 0, 0, 34583, 0, 46305, 0, 18881, 0, 0, 22296, 16096, 0, 0, 0, 0, 41746, 0, 0, 0, 0, 45822, 0, 0, 0, 0, 0, 0, 27842],[0, 0, 0, 0, 0, 46318, 0, 0, 0, 0, 37857, 0, 0, 0, 0, 0, 0, 0, 27709, 25937, 0, 0, 0, 0, 0, 0, 45066, 0, 0, 0, 0, 0, 0, 25251, 0, 43924, 0, -1, 0, 0, 0, 0, 24254, 0, 0, 0, 0, 0, 0, 0, 0, 44567, 0, 0, 0, 0, 0, 0, 0, 28934, 22153, 0, 0, 45595, 32169, 0, 0, 0, 0, 0, 0, 0, 0, 0, 0, 0, 0, 0, 0, 0, 30080, 0, 0, 0, 46031, 0, 0, 0, 0, 0],[31883, 0, 0, 46123, 0, 0, 0, 42849, 0, 0, 0, 25724, 0, 0, 0, 0, 26751, 0, 0, 0, 0, 0, 0, 0, 0, 0, 13930, 0, 38693, 0, 0, 36995, 15520, 0, 0, 21130, 42819, 0, -1, 0, 0, 0, 30021, 0, 0, 0, 0, 46270, 27265, 0, 0, 0, 0, 0, 0, 42558, 25203, 41637, 21222, 23684, 0, 0, 0, 0, 0, 15050, 0, 0, 18376, 44409, 0, 0, 0, 36237, 0, 42637, 0, 25782, 0, 0, 29964, 0, 36157, 0, 0, 42946, 38269, 0, 0, 0],[0, 0, 0, 0, 0, 0, 0, 22863, 0, 0, 39582, 0, 25251, 45514, 0, 0, 0, 0, 0, 0, 0, 17645, 0, 0, 0, 0, 17206, 0, 0, 0, 0, 0, 27282, 0, 40865, 0, 3196, 0, 0, -1, 0, 30625, 0, 26191, 0, 46038, 0, 0, 0, 0, 0, 0, 0, 0, 0, 0, 0, 0, 0, 0, 0, 0, 0, 0, 0, 0, 19208, 0, 0, 0, 23348, 0, 0, 0, 0, 0, 0, 0, 0, 0, 0, 0, 0, 0, 0, 0, 0, 0, 29436, 0],[18480, 0, 0, 0, 32399, 0, 0, 0, 0, 0, 28384, 43059, 0, 0, 22536, 0, 0, 0, 0, 0, 0, 0, 0, 0, 39661, 0, 0, 0, 0, 0, 0, 0, 0, 0, 0, 24288, 0, 0, 0, 0, -1, 0, 0, 0, 36994, 0, 22315, 0, 45652, 0, 0, 21265, 0, 0, 0, 14286, 17368, 0, 16042, 31536, 42381, 0, 0, 0, 27246, 0, 0, 24878, 39861, 16344, 0, 0, 0, 40485, 0, 0, 0, 0, 0, 44346, 0, 0, 0, 0, 0, 37548, 19913, 44581, 0, 0],[0, 0, 0, 32160, 0, 0, 0, 0, 38689, 0, 44645, 21130, 43757, 0, 33166, 0, 0, 0, 0, 44364, 0, 0, 0, 0, 0, 0, 0, 20075, 0, 0, 45061, 0, 0, 0, 0, 0, 0, 0, 0, 30625, 0, -1, 37615, 0, 38404, 0, 0, 0, 0, 0, 0, 0, 0, 0, 0, 31827, 0, 0, 0, 0, 44850, 0, 0, 0, 0, 0, 0, 0, 0, 33191, 0, 0, 0, 19066, 4498, 0, 15973, 0, 0, 0, 0, 0, 0, 0, 0, 0, 0, 0, 0, 0],[39679, 0, 0, 0, 22913, 0, 0, 0, 37073, 0, 9966, 0, 6957, 0, 0, 0, 45093, 0, 0, 40096, 0, 38321, 0, 0, 0, 42390, 0, 0, 0, 0, 0, 0, 40620, 0, 0, 31645, 18067, 24254, 30021, 0, 0, 37615, -1, 0, 0, 23906, 0, 26912, 0, 0, 0, 32462, 0, 5142, 13152, 0, 0, 0, 0, 0, 0, 0, 0, 0, 0, 0, 16214, 0, 0, 0, 0, 0, 44992, 0, 34693, 0, 0, 0, 0, 0, 0, 43531, 0, 0, 42938, 0, 0, 0, 0, 0],[0, 26763, 44310, 11668, 0, 0, 0, 0, 0, 0, 0, 3126, 0, 0, 0, 25690, 0, 0, 23247, 0, 0, 0, 0, 0, 11575, 22493, 0, 11099, 0, 0, 0, 0, 0, 0, 26923, 22968, 0, 0, 0, 26191, 0, 0, 0, -1, 0, 0, 0, 40367, 25953, 44226, 0, 0, 0, 0, 0, 29869, 0, 0, 0, 0, 0, 0, 0, 41733, 0, 0, 0, 0, 0, 0, 0, 0, 0, 27826, 0, 0, 0, 0, 0, 0, 0, 0, 0, 0, 0, 0, 0, 0, 36326, 0],[0, 37136, 0, 0, 0, 30127, 0, 0, 0, 45896, 0, 0, 0, 0, 0, 20691, 0, 23025, 0, 0, 0, 0, 0, 31420, 0, 0, 31322, 0, 0, 0, 35044, 27507, 9936, 0, 46072, 0, 0, 0, 0, 0, 36994, 38404, 0, 0, -1, 0, 0, 22434, 0, 0, 0, 0, 0, 0, 0, 0, 0, 10807, 0, 0, 0, 0, 0, 38340, 0, 0, 0, 0, 0, 0, 0, 0, 0, 0, 0, 40703, 0, 0, 0, 0, 0, 0, 0, 36813, 0, 0, 0, 0, 0, 33928],[0, 0, 0, 0, 0, 0, 23734, 0, 27854, 0, 0, 0, 0, 36620, 0, 0, 44871, 0, 0, 0, 0, 0, 0, 0, 0, 0, 0, 45385, 44707, 0, 0, 33762, 0, 0, 0, 0, 0, 0, 0, 46038, 0, 0, 23906, 0, 0, -1, 34335, 20376, 0, 0, 0, 0, 0, 0, 24082, 0, 38915, 44808, 0, 0, 0, 0, 0, 0, 0, 0, 0, 0, 0, 0, 40434, 17481, 34712, 0, 0, 0, 0, 0, 0, 0, 0, 0, 0, 45801, 0, 0, 0, 39213, 0, 0],[0, 44946, 0, 0, 0, 0, 0, 0, 32048, 0, 0, 0, 0, 0, 19995, 0, 0, 0, 0, 27686, 0, 28004, 0, 0, 0, 0, 36445, 0, 0, 0, 34323, 0, 0, 0, 0, 0, 0, 0, 0, 0, 22315, 0, 0, 0, 0, 34335, -1, 0, 0, 41940, 0, 25805, 0, 0, 0, 0, 0, 44797, 37557, 0, 0, 0, 14373, 0, 0, 0, 0, 0, 39599, 0, 0, 0, 0, 0, 0, 0, 0, 0, 0, 20225, 0, 0, 0, 0, 0, 0, 0, 0, 24237, 7833],[0, 24998, 0, 43901, 0, 0, 37689, 0, 18327, 0, 0, 38067, 28106, 0, 0, 0, 0, 32256, 38530, 0, 0, 0, 0, 0, 0, 28527, 42859, 43103, 0, 0, 44337, 0, 0, 0, 0, 0, 44455, 0, 46270, 0, 0, 0, 26912, 40367, 22434, 20376, 0, -1, 19454, 41565, 0, 43976, 0, 0, 42521, 0, 7841, 0, 42425, 0, 41129, 0, 0, 0, 35383, 0, 0, 0, 0, 21501, 0, 0, 26474, 32263, 36398, 29671, 0, 0, 0, 0, 0, 0, 0, 24529, 0, 0, 0, 38638, 39921, 36166],[21356, 0, 0, 41848, 0, 17489, 27700, 0, 0, 0, 28239, 33849, 0, 0, 0, 0, 0, 0, 0, 0, 0, 0, 0, 20493, 38994, 0, 0, 0, 0, 0, 0, 0, 0, 0, 0, 0, 0, 0, 27265, 0, 45652, 0, 0, 25953, 0, 0, 0, 19454, -1, 0, 0, 0, 0, 40035, 45587, 17618, 0, 13000, 0, 33667, 0, 0, 33751, 0, 0, 0, 0, 28035, 0, 0, 0, 37247, 0, 0, 0, 34488, 0, 0, 0, 42077, 0, 21161, 0, 42574, 0, 0, 0, 0, 0, 0],[0, 0, 0, 0, 0, 27173, 0, 0, 45354, 0, 40102, 0, 0, 40236, 0, 0, 0, 0, 0, 0, 0, 0, 0, 41131, 0, 0, 0, 27472, 41084, 0, 0, 35946, 0, 10481, 0, 0, 0, 0, 0, 0, 0, 0, 0, 44226, 0, 0, 41940, 41565, 0, -1, 0, 0, 31936, 0, 32133, 0, 38905, 31781, 0, 33637, 0, 0, 0, 0, 0, 0, 19007, 42959, 0, 24948, 42316, 0, 29910, 0, 0, 0, 44677, 23044, 29864, 0, 0, 0, 0, 0, 0, 32190, 0, 0, 0, 0],[0, 0, 21209, 35824, 0, 0, 0, 0, 35294, 0, 0, 0, 0, 0, 19181, 0, 0, 0, 0, 0, 0, 0, 0, 0, 0, 0, 21316, 0, 0, 0, 0, 0, 26762, 0, 0, 0, 32069, 0, 0, 0, 0, 0, 0, 0, 0, 0, 0, 0, 0, 0, -1, 0, 0, 25149, 0, 0, 0, 22617, 0, 0, 0, 0, 0, 18760, 0, 0, 0, 0, 46231, 3799, 33684, 27610, 0, 31010, 0, 0, 0, 32566, 0, 0, 0, 15274, 0, 0, 0, 14068, 0, 11050, 0, 0],[0, 0, 0, 0, 0, 32547, 0, 0, 0, 0, 0, 0, 0, 0, 0, 0, 0, 0, 35245, 27638, 0, 0, 0, 0, 0, 0, 0, 0, 0, 0, 0, 38858, 42711, 0, 0, 0, 17328, 44567, 0, 0, 21265, 0, 32462, 0, 0, 0, 25805, 43976, 0, 0, 0, -1, 45628, 0, 29976, 0, 28644, 11078, 0, 0, 0, 0, 0, 36378, 0, 0, 0, 36268, 0, 0, 0, 8716, 0, 0, 0, 8540, 0, 0, 0, 0, 0, 4436, 0, 0, 0, 23460, 0, 42088, 0, 0],[0, 0, 22398, 0, 0, 13133, 33366, 0, 0, 0, 0, 0, 0, 0, 0, 0, 0, 0, 0, 0, 0, 0, 41142, 0, 0, 38556, 0, 0, 0, 14283, 0, 27775, 0, 0, 0, 0, 0, 0, 0, 0, 0, 0, 0, 0, 0, 0, 0, 0, 0, 31936, 0, 45628, -1, 12538, 31504, 0, 0, 35772, 9955, 0, 0, 0, 0, 0, 20273, 0, 0, 0, 43228, 0, 0, 29981, 0, 0, 0, 0, 0, 0, 3219, 0, 0, 0, 18297, 26872, 0, 0, 0, 37103, 0, 0],[0, 0, 0, 32255, 20324, 0, 0, 0, 0, 0, 0, 0, 0, 0, 0, 0, 0, 0, 30689, 13647, 0, 19562, 0, 0, 0, 0, 0, 0, 0, 32639, 0, 0, 32139, 0, 0, 0, 23908, 0, 0, 0, 0, 0, 5142, 0, 0, 0, 0, 0, 40035, 0, 25149, 0, 12538, -1, 31923, 0, 0, 15830, 0, 0, 10530, 0, 43582, 0, 0, 34837, 0, 0, 35721, 0, 0, 37048, 0, 45057, 0, 0, 20239, 0, 0, 35988, 0, 17987, 0, 0, 42755, 36783, 26741, 0, 0, 0],[0, 23990, 0, 0, 0, 0, 0, 0, 0, 0, 0, 0, 34024, 0, 0, 0, 0, 37861, 0, 0, 0, 0, 0, 0, 0, 0, 0, 0, 0, 0, 44468, 42376, 42884, 0, 0, 45473, 27037, 0, 0, 0, 0, 0, 13152, 0, 0, 24082, 0, 42521, 45587, 32133, 0, 29976, 31504, 31923, -1, 0, 0, 0, 0, 0, 0, 0, 0, 0, 40771, 0, 26208, 0, 0, 0, 0, 0, 0, 0, 0, 0, 0, 0, 0, 22076, 0, 0, 26311, 0, 0, 0, 0, 42669, 0, 0],[0, 39748, 0, 0, 0, 0, 0, 0, 0, 0, 0, 0, 18179, 0, 0, 42023, 0, 0, 30423, 17607, 0, 0, 0, 0, 0, 0, 0, 0, 0, 31406, 30646, 22190, 38344, 0, 41146, 0, 0, 0, 42558, 0, 14286, 31827, 0, 29869, 0, 0, 0, 0, 17618, 0, 0, 0, 0, 0, 0, -1, 0, 38815, 0, 11630, 45758, 42116, 38007, 2703, 0, 0, 0, 0, 0, 29326, 0, 0, 0, 0, 0, 0, 29680, 41461, 34481, 42245, 0, 0, 0, 0, 0, 0, 0, 0, 0, 0],[0, 0, 34497, 0, 6661, 35580, 0, 0, 0, 0, 29102, 0, 0, 21526, 0, 0, 0, 0, 0, 43123, 0, 0, 12877, 0, 0, 8303, 0, 0, 44370, 0, 0, 0, 0, 13550, 0, 0, 12669, 0, 25203, 0, 17368, 0, 0, 0, 0, 38915, 0, 7841, 0, 38905, 0, 28644, 0, 0, 0, 0, -1, 0, 0, 43329, 39535, 0, 0, 0, 0, 0, 29131, 0, 0, 0, 0, 0, 0, 0, 30377, 0, 0, 0, 0, 0, 36101, 0, 0, 32373, 0, 0, 0, 30743, 7162, 0],[0, 0, 0, 0, 17889, 0, 30798, 19272, 34627, 39349, 0, 0, 0, 0, 40668, 0, 0, 23798, 42800, 0, 0, 0, 34355, 31433, 0, 0, 0, 0, 0, 0, 0, 0, 0, 0, 13480, 0, 42848, 0, 41637, 0, 0, 0, 0, 0, 10807, 44808, 44797, 0, 13000, 31781, 22617, 11078, 35772, 15830, 0, 38815, 0, -1, 21491, 0, 0, 32347, 0, 37755, 17001, 28492, 0, 0, 39962, 0, 0, 0, 0, 0, 42269, 0, 0, 0, 0, 0, 0, 0, 23762, 16945, 0, 0, 0, 15629, 38148, 0],[24704, 0, 0, 40194, 0, 0, 0, 0, 0, 0, 45155, 0, 0, 0, 0, 10901, 5445, 0, 0, 18617, 0, 0, 0, 0, 0, 0, 0, 0, 0, 0, 0, 11542, 34056, 0, 14413, 0, 0, 0, 21222, 0, 16042, 0, 0, 0, 0, 0, 37557, 42425, 0, 0, 0, 0, 9955, 0, 0, 0, 0, 21491, -1, 0, 0, 0, 42712, 0, 0, 41492, 0, 43709, 0, 0, 0, 0, 0, 0, 16329, 0, 0, 14753, 0, 0, 0, 39653, 0, 0, 0, 0, 0, 43630, 40801, 9126],[0, 0, 35648, 19473, 0, 0, 0, 0, 0, 22406, 0, 0, 0, 0, 28721, 0, 0, 28585, 0, 0, 44728, 0, 0, 0, 0, 0, 0, 0, 34270, 0, 0, 0, 0, 0, 0, 0, 24434, 28934, 23684, 0, 31536, 0, 0, 0, 0, 0, 0, 0, 33667, 33637, 0, 0, 0, 0, 0, 11630, 43329, 0, 0, -1, 0, 0, 0, 27239, 0, 0, 0, 0, 0, 35834, 0, 0, 0, 0, 0, 0, 0, 0, 0, 0, 19739, 0, 0, 0, 20872, 0, 0, 0, 0, 0],[27423, 0, 0, 0, 0, 10484, 12266, 0, 0, 0, 0, 0, 35309, 0, 0, 32845, 0, 0, 0, 4346, 0, 0, 0, 0, 33354, 33925, 0, 0, 7033, 0, 0, 0, 0, 21036, 0, 0, 24722, 22153, 0, 0, 42381, 44850, 0, 0, 0, 0, 0, 41129, 0, 0, 0, 0, 0, 10530, 0, 45758, 39535, 0, 0, 0, -1, 0, 0, 0, 0, 0, 0, 0, 0, 0, 0, 0, 0, 10919, 0, 30932, 0, 0, 0, 0, 0, 0, 0, 0, 0, 0, 0, 0, 0, 31339],[0, 29833, 0, 0, 44992, 0, 0, 36992, 0, 12409, 0, 0, 0, 0, 0, 0, 0, 0, 0, 0, 0, 0, 0, 0, 0, 0, 0, 30549, 0, 0, 0, 0, 43564, 14494, 0, 30951, 0, 0, 0, 0, 0, 0, 0, 0, 0, 0, 0, 0, 0, 0, 0, 0, 0, 0, 0, 42116, 0, 32347, 0, 0, 0, -1, 27381, 0, 0, 0, 0, 0, 0, 0, 0, 0, 0, 14700, 0, 0, 45545, 0, 0, 0, 0, 0, 18461, 0, 35918, 0, 0, 0, 0, 0],[0, 0, 33609, 32591, 0, 26008, 23678, 0, 42498, 0, 0, 0, 19617, 0, 0, 0, 17596, 0, 0, 42614, 0, 0, 0, 0, 0, 0, 0, 17415, 45489, 0, 0, 0, 0, 30611, 0, 9421, 0, 0, 0, 0, 0, 0, 0, 0, 0, 0, 14373, 0, 33751, 0, 0, 0, 0, 43582, 0, 38007, 0, 0, 42712, 0, 0, 27381, -1, 0, 37012, 5761, 0, 0, 0, 0, 0, 0, 0, 14857, 0, 0, 0, 0, 0, 0, 0, 22413, 0, 14960, 0, 0, 0, 43530, 0, 0],[0, 35298, 0, 0, 10928, 0, 0, 44642, 0, 22357, 0, 0, 0, 42348, 0, 0, 0, 23870, 0, 0, 0, 0, 0, 0, 46243, 44058, 0, 0, 0, 0, 0, 0, 0, 0, 0, 0, 0, 45595, 0, 0, 0, 0, 0, 41733, 38340, 0, 0, 0, 0, 0, 18760, 36378, 0, 0, 0, 2703, 0, 37755, 0, 27239, 0, 0, 0, -1, 0, 0, 15090, 0, 0, 0, 27429, 19945, 0, 0, 34183, 0, 11997, 30905, 1704, 6808, 19372, 0, 0, 0, 0, 4412, 0, 0, 0, 43714],[0, 0, 0, 0, 0, 0, 0, 37794, 0, 44322, 0, 34261, 0, 15881, 0, 0, 24643, 0, 0, 0, 0, 0, 0, 0, 37859, 0, 0, 20398, 0, 0, 37228, 0, 0, 0, 0, 0, 34583, 32169, 0, 0, 27246, 0, 0, 0, 0, 0, 0, 35383, 0, 0, 0, 0, 20273, 0, 40771, 0, 0, 17001, 0, 0, 0, 0, 37012, 0, -1, 0, 0, 0, 0, 0, 0, 0, 0, 38879, 0, 0, 0, 0, 27213, 0, 0, 0, 19852, 0, 0, 0, 0, 0, 0, 0],[0, 33177, 0, 34807, 14650, 0, 0, 0, 45401, 0, 46300, 0, 0, 0, 0, 0, 41762, 0, 0, 0, 40171, 0, 0, 0, 0, 0, 0, 0, 0, 10097, 0, 0, 0, 0, 0, 0, 0, 0, 15050, 0, 0, 0, 0, 0, 0, 0, 0, 0, 0, 0, 0, 0, 0, 34837, 0, 0, 0, 28492, 41492, 0, 0, 0, 5761, 0, 0, -1, 31965, 40577, 0, 0, 0, 0, 0, 38995, 8995, 0, 19521, 0, 0, 0, 23225, 0, 0, 22330, 0, 16204, 0, 0, 0, 0],[34465, 0, 0, 0, 0, 0, 0, 0, 43740, 0, 31313, 44671, 0, 0, 0, 0, 0, 0, 45067, 0, 0, 7062, 0, 0, 0, 0, 37998, 37751, 0, 0, 33060, 0, 41136, 41501, 0, 0, 46305, 0, 0, 19208, 0, 0, 16214, 0, 0, 0, 0, 0, 0, 19007, 0, 0, 0, 0, 26208, 0, 29131, 0, 0, 0, 0, 0, 0, 15090, 0, 31965, -1, 0, 0, 0, 0, 0, 0, 0, 0, 0, 0, 33048, 23339, 29611, 0, 0, 0, 13616, 7716, 0, 0, 24591, 30866, 0],[0, 0, 0, 0, 0, 38149, 0, 39974, 0, 0, 0, 0, 0, 0, 11778, 0, 0, 0, 30335, 0, 0, 0, 35728, 0, 23790, 0, 12428, 0, 0, 35780, 28912, 0, 0, 0, 0, 0, 0, 0, 0, 0, 24878, 0, 0, 0, 0, 0, 0, 0, 28035, 42959, 0, 36268, 0, 0, 0, 0, 0, 0, 43709, 0, 0, 0, 0, 0, 0, 40577, 0, -1, 0, 0, 0, 0, 0, 0, 0, 0, 0, 0, 0, 42869, 0, 0, 38951, 0, 42891, 0, 0, 15057, 0, 39122],[0, 40285, 0, 0, 0, 0, 38193, 23672, 0, 41281, 0, 28859, 0, 38133, 0, 0, 16693, 0, 0, 26014, 0, 42004, 0, 0, 0, 0, 0, 0, 0, 33959, 0, 40769, 44046, 0, 0, 45346, 18881, 0, 18376, 0, 39861, 0, 0, 0, 0, 0, 39599, 0, 0, 0, 46231, 0, 43228, 35721, 0, 0, 0, 39962, 0, 0, 0, 0, 0, 0, 0, 0, 0, 0, -1, 0, 0, 43309, 45122, 33166, 36303, 0, 0, 8477, 29666, 21703, 0, 23257, 0, 19151, 0, 0, 23556, 38341, 0, 0],[0, 0, 0, 20409, 0, 0, 0, 46181, 44913, 0, 0, 0, 0, 0, 21490, 24747, 0, 0, 0, 0, 0, 0, 46019, 24682, 34107, 0, 0, 43541, 9283, 0, 9349, 0, 0, 0, 0, 0, 0, 0, 44409, 0, 16344, 33191, 0, 0, 0, 0, 0, 21501, 0, 24948, 3799, 0, 0, 0, 0, 29326, 0, 0, 0, 35834, 0, 0, 0, 0, 0, 0, 0, 0, 0, -1, 0, 0, 0, 0, 23668, 0, 0, 0, 0, 0, 37014, 0, 0, 0, 0, 0, 17828, 39322, 37686, 0],[19284, 0, 39260, 0, 45930, 0, 0, 19693, 30625, 0, 16109, 0, 0, 0, 0, 0, 0, 37887, 0, 0, 0, 19426, 0, 0, 0, 0, 39923, 45105, 40802, 19508, 0, 7209, 0, 20936, 0, 0, 0, 0, 0, 23348, 0, 0, 0, 0, 0, 40434, 0, 0, 0, 42316, 33684, 0, 0, 0, 0, 0, 0, 0, 0, 0, 0, 0, 0, 27429, 0, 0, 0, 0, 0, 0, -1, 0, 0, 31457, 0, 34020, 34926, 0, 0, 0, 44686, 0, 0, 0, 0, 9339, 0, 0, 44904, 5266],[0, 9859, 0, 12370, 0, 0, 0, 0, 34912, 0, 27653, 0, 0, 0, 0, 44611, 0, 0, 0, 0, 14431, 0, 0, 0, 45080, 31022, 15140, 12394, 0, 0, 0, 0, 0, 0, 0, 25304, 22296, 0, 0, 0, 0, 0, 0, 0, 0, 17481, 0, 0, 37247, 0, 27610, 8716, 29981, 37048, 0, 0, 0, 0, 0, 0, 0, 0, 0, 19945, 0, 0, 0, 0, 43309, 0, 0, -1, 0, 0, 0, 22598, 0, 0, 0, 0, 0, 17844, 0, 0, 0, 0, 0, 0, 0, 28483],[0, 0, 0, 0, 40608, 12566, 0, 22211, 9242, 0, 0, 0, 23185, 0, 38099, 0, 0, 0, 0, 0, 0, 0, 0, 0, 43742, 0, 0, 0, 0, 41564, 0, 0, 0, 0, 0, 40824, 16096, 0, 0, 0, 0, 0, 44992, 0, 0, 34712, 0, 26474, 0, 29910, 0, 0, 0, 0, 0, 0, 0, 0, 0, 0, 0, 0, 0, 0, 0, 0, 0, 0, 45122, 0, 0, 0, -1, 0, 0, 0, 40695, 31530, 28415, 0, 0, 0, 0, 0, 42408, 0, 0, 0, 42134, 0],[0, 41869, 0, 0, 0, 5308, 16416, 0, 0, 18063, 0, 0, 38655, 33285, 0, 0, 5099, 0, 0, 29330, 0, 32817, 0, 0, 12502, 0, 0, 0, 29126, 40827, 40136, 35674, 0, 0, 0, 0, 0, 0, 36237, 0, 40485, 19066, 0, 27826, 0, 0, 0, 32263, 0, 0, 31010, 0, 0, 45057, 0, 0, 0, 0, 0, 0, 10919, 14700, 14857, 0, 38879, 38995, 0, 0, 33166, 0, 31457, 0, 0, -1, 0, 0, 0, 0, 0, 0, 0, 33275, 0, 0, 0, 0, 0, 0, 0, 0],[0, 0, 0, 43310, 0, 0, 0, 42121, 0, 0, 0, 0, 29172, 0, 0, 0, 0, 0, 0, 42369, 0, 27131, 0, 0, 0, 0, 0, 0, 0, 0, 0, 0, 0, 0, 0, 0, 0, 0, 0, 0, 0, 4498, 34693, 0, 0, 0, 0, 36398, 0, 0, 0, 0, 0, 0, 0, 0, 30377, 42269, 16329, 0, 0, 0, 0, 34183, 0, 8995, 0, 0, 36303, 23668, 0, 0, 0, 0, -1, 0, 0, 30904, 0, 0, 24148, 0, 0, 0, 0, 0, 0, 0, 20466, 0],[0, 0, 41767, 34706, 24273, 35969, 42041, 0, 38211, 0, 42751, 0, 0, 0, 0, 0, 46140, 33844, 0, 27592, 0, 33160, 31470, 0, 0, 0, 0, 43006, 0, 0, 0, 0, 0, 32265, 0, 46039, 0, 0, 42637, 0, 0, 0, 0, 0, 40703, 0, 0, 29671, 34488, 0, 0, 8540, 0, 0, 0, 0, 0, 0, 0, 0, 30932, 0, 0, 0, 0, 0, 0, 0, 0, 0, 34020, 22598, 0, 0, 0, -1, 0, 0, 38034, 0, 25086, 0, 0, 0, 0, 0, 0, 0, 0, 0],[0, 0, 0, 33395, 0, 45666, 41018, 0, 0, 0, 0, 0, 0, 0, 0, 0, 38447, 0, 0, 34986, 0, 34380, 0, 0, 0, 0, 0, 0, 0, 0, 0, 0, 0, 0, 0, 0, 0, 0, 0, 0, 0, 15973, 0, 0, 0, 0, 0, 0, 0, 44677, 0, 0, 0, 20239, 0, 29680, 0, 0, 0, 0, 0, 45545, 0, 11997, 0, 19521, 0, 0, 0, 0, 34926, 0, 40695, 0, 0, 0, -1, 0, 42837, 0, 0, 0, 44530, 0, 0, 46236, 19752, 0, 10202, 42598],[28772, 0, 0, 0, 0, 0, 0, 0, 0, 43741, 0, 39524, 42924, 35310, 0, 0, 0, 0, 0, 33403, 0, 0, 45618, 0, 0, 0, 0, 0, 34291, 0, 0, 0, 24337, 0, 0, 0, 41746, 0, 25782, 0, 0, 0, 0, 0, 0, 0, 0, 0, 0, 23044, 32566, 0, 0, 0, 0, 41461, 0, 0, 14753, 0, 0, 0, 0, 30905, 0, 0, 33048, 0, 8477, 0, 0, 0, 31530, 0, 30904, 0, 0, -1, 40518, 0, 0, 0, 0, 0, 0, 21184, 0, 0, 0, 0],[37467, 0, 0, 31226, 0, 0, 0, 0, 10216, 0, 0, 40307, 0, 0, 0, 0, 0, 0, 0, 0, 0, 0, 0, 9567, 43878, 0, 0, 35306, 13825, 0, 0, 0, 0, 0, 0, 0, 0, 0, 0, 0, 0, 0, 0, 0, 0, 0, 0, 0, 0, 29864, 0, 0, 3219, 0, 0, 34481, 0, 0, 0, 0, 0, 0, 0, 1704, 27213, 0, 23339, 0, 29666, 0, 0, 0, 28415, 0, 0, 38034, 42837, 40518, -1, 0, 0, 21420, 0, 36127, 0, 0, 0, 0, 29353, 31719],[0, 0, 0, 42692, 0, 0, 0, 0, 0, 0, 44477, 0, 0, 14762, 0, 0, 0, 4289, 0, 16639, 0, 0, 0, 0, 0, 0, 0, 0, 0, 0, 0, 0, 11272, 0, 0, 0, 0, 0, 0, 0, 44346, 0, 0, 0, 0, 0, 20225, 0, 42077, 0, 0, 0, 0, 35988, 22076, 42245, 0, 0, 0, 0, 0, 0, 0, 6808, 0, 0, 29611, 42869, 21703, 0, 0, 0, 0, 0, 0, 0, 0, 0, 0, -1, 0, 0, 0, 0, 0, 43496, 10170, 0, 0, 0],[0, 0, 0, 0, 0, 0, 37196, 0, 0, 24398, 37940, 36762, 0, 0, 0, 0, 0, 0, 0, 0, 0, 38487, 0, 0, 13605, 25722, 0, 0, 21762, 27705, 32285, 31478, 0, 15010, 0, 0, 0, 30080, 29964, 0, 0, 0, 0, 0, 0, 0, 0, 0, 0, 0, 0, 0, 0, 0, 0, 0, 36101, 0, 0, 19739, 0, 0, 0, 19372, 0, 23225, 0, 0, 0, 37014, 44686, 0, 0, 0, 24148, 25086, 0, 0, 0, 0, -1, 0, 0, 45975, 0, 0, 0, 0, 36198, 0],[0, 0, 0, 0, 0, 35838, 0, 0, 34026, 0, 0, 0, 41175, 24830, 0, 0, 0, 42261, 0, 0, 0, 0, 0, 35349, 29382, 0, 0, 0, 0, 4034, 0, 39726, 0, 0, 40222, 0, 0, 0, 0, 0, 0, 0, 43531, 0, 0, 0, 0, 0, 21161, 0, 15274, 4436, 0, 17987, 0, 0, 0, 0, 39653, 0, 0, 0, 22413, 0, 0, 0, 0, 0, 23257, 0, 0, 17844, 0, 33275, 0, 0, 0, 0, 21420, 0, 0, -1, 0, 0, 0, 0, 39502, 0, 7887, 30746],[0, 0, 0, 17460, 0, 0, 0, 0, 0, 0, 21757, 0, 35846, 0, 0, 29195, 0, 39776, 0, 14307, 44258, 0, 39513, 33966, 17338, 44581, 0, 0, 0, 0, 0, 0, 0, 0, 0, 39470, 45822, 0, 36157, 0, 0, 0, 0, 0, 0, 0, 0, 0, 0, 0, 0, 0, 18297, 0, 26311, 0, 0, 23762, 0, 0, 0, 18461, 0, 0, 19852, 0, 0, 38951, 0, 0, 0, 0, 0, 0, 0, 0, 44530, 0, 0, 0, 0, 0, -1, 0, 0, 0, 42548, 19675, 45249, 0],[0, 0, 0, 0, 0, 0, 0, 0, 0, 0, 24472, 0, 0, 0, 0, 0, 0, 0, 40974, 0, 17730, 0, 0, 39422, 37480, 0, 0, 0, 18511, 0, 0, 26919, 0, 0, 45289, 0, 0, 0, 0, 0, 0, 0, 0, 0, 36813, 45801, 0, 24529, 42574, 0, 0, 0, 26872, 0, 0, 0, 32373, 16945, 0, 0, 0, 0, 14960, 0, 0, 22330, 13616, 0, 19151, 0, 0, 0, 0, 0, 0, 0, 0, 0, 36127, 0, 45975, 0, 0, -1, 36009, 0, 0, 0, 0, 19824],[0, 0, 0, 0, 0, 0, 13115, 0, 0, 0, 0, 30203, 41079, 29669, 0, 0, 0, 12434, 0, 0, 0, 0, 0, 0, 0, 0, 0, 0, 0, 0, 0, 0, 0, 0, 0, 32567, 0, 46031, 0, 0, 0, 0, 42938, 0, 0, 0, 0, 0, 0, 0, 0, 0, 0, 42755, 0, 0, 0, 0, 0, 20872, 0, 35918, 0, 0, 0, 0, 7716, 42891, 0, 0, 0, 0, 42408, 0, 0, 0, 0, 0, 0, 0, 0, 0, 0, 36009, -1, 0, 0, 0, 0, 0],[0, 0, 0, 42728, 25263, 29372, 27215, 0, 0, 0, 33609, 0, 0, 0, 28484, 0, 41143, 0, 42244, 4633, 0, 0, 9626, 38711, 0, 0, 0, 0, 34151, 0, 12427, 0, 0, 0, 36352, 0, 0, 0, 42946, 0, 37548, 0, 0, 0, 0, 0, 0, 0, 0, 32190, 14068, 23460, 0, 36783, 0, 0, 0, 0, 0, 0, 0, 0, 0, 4412, 0, 16204, 0, 0, 0, 0, 9339, 0, 0, 0, 0, 0, 46236, 21184, 0, 43496, 0, 0, 0, 0, 0, -1, 0, 0, 36654, 0],[0, 0, 0, 0, 30078, 0, 0, 30083, 0, 0, 0, 34496, 0, 0, 0, 45559, 0, 0, 20721, 0, 0, 0, 0, 44315, 0, 0, 0, 0, 0, 0, 0, 30606, 0, 0, 45146, 46013, 0, 0, 38269, 0, 19913, 0, 0, 0, 0, 0, 0, 0, 0, 0, 0, 0, 0, 26741, 0, 0, 0, 0, 0, 0, 0, 0, 0, 0, 0, 0, 0, 0, 23556, 17828, 0, 0, 0, 0, 0, 0, 19752, 0, 0, 10170, 0, 39502, 42548, 0, 0, 0, -1, 0, 0, 0],[10907, 0, 0, 0, 0, 0, 0, 0, 0, 26495, 0, 42176, 35727, 0, 0, 0, 0, 0, 0, 0, 0, 0, 0, 0, 0, 0, 0, 17945, 32137, 14814, 0, 36260, 0, 0, 0, 40302, 0, 0, 0, 0, 44581, 0, 0, 0, 0, 39213, 0, 38638, 0, 0, 11050, 42088, 37103, 0, 42669, 0, 30743, 15629, 43630, 0, 0, 0, 43530, 0, 0, 0, 24591, 15057, 38341, 39322, 0, 0, 0, 0, 0, 0, 0, 0, 0, 0, 0, 0, 19675, 0, 0, 0, 0, -1, 24714, 0],[0, 0, 0, 0, 44406, 29442, 0, 23994, 0, 0, 0, 0, 0, 0, 35197, 0, 0, 0, 0, 0, 0, 38913, 0, 0, 10307, 0, 0, 35617, 45430, 38475, 0, 0, 26131, 0, 33558, 0, 0, 0, 0, 29436, 0, 0, 0, 36326, 0, 0, 24237, 39921, 0, 0, 0, 0, 0, 0, 0, 0, 7162, 38148, 40801, 0, 0, 0, 0, 0, 0, 0, 30866, 0, 0, 37686, 44904, 0, 42134, 0, 20466, 0, 10202, 0, 29353, 0, 36198, 7887, 45249, 0, 0, 36654, 0, 24714, -1, 0],[0, 32071, 0, 0, 0, 4530, 0, 0, 0, 0, 0, 45140, 39800, 0, 0, 0, 0, 34367, 0, 0, 43691, 0, 32518, 0, 43140, 0, 0, 39638, 11248, 0, 37384, 5562, 0, 0, 0, 38314, 27842, 0, 0, 0, 0, 0, 0, 0, 33928, 0, 7833, 36166, 0, 0, 0, 0, 0, 0, 0, 0, 0, 0, 9126, 0, 31339, 0, 0, 43714, 0, 0, 0, 39122, 0, 0, 5266, 28483, 0, 0, 0, 0, 42598, 0, 31719, 0, 0, 30746, 0, 19824, 0, 0, 0, 0, 0, -1]]